4,1,5,1,6,1,9,2,3,2,15,1,15,2,11,4,10,5,12,4,2,4,2,5,1,4,14,4,3,5,7,5;1,1,12,1,10,2,4,2,2,2,11,3,6,4,1,3,14,1,7,3,9,4,14,2,11,5,7,4,5,5;10,1,8,1,3,1,8,2,4,3,10,4,5,3,15,3,7,2,13,3,13,4,14,3,3,4,13,5,15,5;2,1,13,2,11,1,6,2,1,2,3,3,12,3,8,3,9,3,5,4,9,5,8,5;13,1,7,1,9,1,5,2,12,2,11,2,10,3,6,3,2,3,4,4,4,5,6,5,15,4,8,4,12,5,1,5,14,5;
